(set-logic HORN)
(set-info :source |
    Benchmark: C_VC
    Output by Princess (http://www.philipp.ruemmer.org/princess.shtml)
|)
(set-info :status sat)
(declare-heap Heap Addr HeapObject
 defObj
 ((HeapObject 0)) (
  (
   (O_Int (getInt Int))
   (O_UInt (getUInt Int))
   (O_Addr (getAddr Addr))
   (defObj)
  )
))
(declare-fun inv_main25 (Heap Int Int Int Int AddrRange AddrRange) Bool)
(declare-fun inv_main27 (Heap Int Int Int Int AddrRange AddrRange) Bool)
(declare-fun inv_main28 (Heap Int Int Int Int AddrRange AddrRange Int) Bool)
(declare-fun inv_main3 (Heap Int) Bool)
(declare-fun inv_main36 (Heap Int Int Int Int AddrRange AddrRange) Bool)
(declare-fun inv_main40 (Heap Int Int Int Int AddrRange AddrRange) Bool)
(declare-fun inv_main41 (Heap Int Int Int Int AddrRange AddrRange) Bool)
(declare-fun inv_main43 (Heap Int Int Int Int AddrRange AddrRange Int) Bool)
(declare-fun inv_main44 (Heap Int Int Int Int AddrRange AddrRange) Bool)
(declare-fun inv_main46 (Heap Int Int Int Int AddrRange AddrRange) Bool)
(assert (forall ((var0 Int) (var1 Heap)) (or (not (= var1 emptyHeap)) (inv_main3 var1 var0))))
(assert (forall ((var0 AddrRange) (var1 AddrRange) (var2 Int) (var3 Int) (var4 Int) (var5 Int) (var6 Heap) (var7 Int) (var8 AddrRange) (var9 AddrRange) (var10 Int) (var11 Int) (var12 Int) (var13 Int) (var14 Heap)) (or (not (and (inv_main43 var14 var13 var12 var11 var10 var9 var8 var7) (and (and (is-O_Int (read var14 (nthAddrRange var8 var13))) (is-O_Int (read var14 (nthAddrRange var8 var13)))) (and (and (and (and (and (and (= var6 (write var14 (nthAddrRange var8 var13) (O_Int (+ var7 (* (- 1) var12))))) (= var5 var13)) (= var4 var12)) (= var3 var11)) (= var2 var10)) (= var1 var9)) (= var0 var8))))) (inv_main40 var6 (+ var5 1) var4 var3 var2 var1 var0))))
(assert (forall ((var0 Int) (var1 AddrRange) (var2 AddrRange) (var3 Int) (var4 Int) (var5 Heap) (var6 Int) (var7 Int) (var8 AddrRange) (var9 AddrRange) (var10 Int) (var11 Int) (var12 Int) (var13 Int) (var14 Heap)) (or (not (and (inv_main36 var14 var13 var12 var11 var10 var9 var8) (and (not (<= 0 (+ (+ var7 (* (- 1) (+ var6 1))) (- 1)))) (and (is-O_Int (read var14 (nthAddrRange var9 var13))) (and (and (and (and (and (and (and (= var5 var14) (= var6 var13)) (= var4 var12)) (= var3 var11)) (= var7 var10)) (= var2 var9)) (= var1 var8)) (= var0 (getInt (read var14 (nthAddrRange var9 var13))))))))) (inv_main40 var5 0 var0 var3 var7 var2 var1))))
(assert (forall ((var0 AddrRange) (var1 AddrRange) (var2 Int) (var3 Int) (var4 Int) (var5 Int) (var6 Heap)) (or (not (and (inv_main27 var6 var5 var4 var3 var2 var1 var0) (and (not (<= 0 (+ (+ var2 (* (- 1) (+ var5 1))) (- 1)))) (and (is-O_Int (read var6 (nthAddrRange var1 var5))) (not (<= 0 (+ (+ var4 (* (- 1) (getInt (read var6 (nthAddrRange var1 var5))))) (- 1)))))))) (inv_main40 var6 0 var4 var3 var2 var1 var0))))
(assert (forall ((var0 Int) (var1 Int) (var2 Int) (var3 Int) (var4 Int) (var5 Heap) (var6 Heap) (var7 Int) (var8 Int) (var9 Int) (var10 Int) (var11 Int) (var12 Int) (var13 Heap) (var14 AddrRange) (var15 AddrRange) (var16 AddrRange) (var17 Int) (var18 Int) (var19 Int) (var20 Int) (var21 Int) (var22 Int) (var23 Int) (var24 Int) (var25 Heap) (var26 Int) (var27 Int) (var28 Heap)) (or (not (and (inv_main3 var28 var27) (and (and (and (and (not (<= 0 (+ var26 (- 1)))) (and (and (and (and (and (and (= var25 (newBatchHeap (batchAlloc emptyHeap (O_Int var24) var23))) (= var22 var21)) (= var20 var19)) (= var18 var17)) (= var26 var23)) (= var16 var15)) (= var14 (newAddrRange (batchAlloc emptyHeap (O_Int var24) var23))))) (and (and (and (and (and (= var13 (newBatchHeap (batchAlloc emptyHeap (O_Int var12) (+ var11 1)))) (= var21 var10)) (= var19 var9)) (= var17 var8)) (= var23 var11)) (= var15 (newAddrRange (batchAlloc emptyHeap (O_Int var12) (+ var11 1)))))) (and (not (= var7 0)) (and (and (and (and (and (= var6 var5) (= var10 var4)) (= var9 var3)) (= var8 0)) (= var11 var2)) (or (and (and (<= 0 (+ (+ 10000 (* (- 1) var2)) (- 1))) (<= 0 (+ (+ var2 10000) (- 1)))) (= var7 1)) (and (not (and (<= 0 (+ (+ 10000 (* (- 1) var2)) (- 1))) (<= 0 (+ (+ var2 10000) (- 1))))) (= var7 0)))))) (and (not (= var1 0)) (and (and (and (= var5 var28) (= var4 var27)) (= var3 var0)) (or (and (and (<= 0 (+ (+ 10000 (* (- 1) var0)) (- 1))) (<= 0 (+ (+ var0 10000) (- 1)))) (= var1 1)) (and (not (and (<= 0 (+ (+ 10000 (* (- 1) var0)) (- 1))) (<= 0 (+ (+ var0 10000) (- 1))))) (= var1 0)))))))) (inv_main40 var25 0 var20 var18 var26 var16 var14))))
(assert (forall ((var0 AddrRange) (var1 AddrRange) (var2 Int) (var3 Int) (var4 Int) (var5 Int) (var6 Heap)) (or (not (and (inv_main40 var6 var5 var4 var3 var2 var1 var0) (and (<= 0 (+ var2 (- 1))) (not (<= 0 (+ (+ var2 (* (- 1) var5)) (- 1))))))) (inv_main46 var6 0 var4 var3 var2 var1 var0))))
(assert (forall ((var0 Int) (var1 AddrRange) (var2 AddrRange) (var3 Int) (var4 Int) (var5 Heap) (var6 Int) (var7 Int) (var8 AddrRange) (var9 AddrRange) (var10 Int) (var11 Int) (var12 Int) (var13 Int) (var14 Heap)) (or (not (and (inv_main46 var14 var13 var12 var11 var10 var9 var8) (and (<= 0 (+ (+ var7 (* (- 1) (+ var6 1))) (- 1))) (and (is-O_Int (read var14 (nthAddrRange var8 var13))) (and (and (and (and (and (and (and (= var5 var14) (= var6 var13)) (= var4 var12)) (= var3 var11)) (= var7 var10)) (= var2 var9)) (= var1 var8)) (= var0 (+ var11 (getInt (read var14 (nthAddrRange var8 var13)))))))))) (inv_main46 var5 (+ var6 1) var4 (+ var0 var6) var7 var2 var1))))
(assert (forall ((var0 AddrRange) (var1 AddrRange) (var2 Int) (var3 Int) (var4 Int) (var5 Int) (var6 Heap)) (or (not (and (inv_main40 var6 var5 var4 var3 var2 var1 var0) (<= 0 (+ (+ var2 (* (- 1) var5)) (- 1))))) (inv_main41 var6 var5 var4 var3 var2 var1 var0))))
(assert (forall ((var0 Int) (var1 AddrRange) (var2 AddrRange) (var3 Int) (var4 Int) (var5 Heap) (var6 Int) (var7 Int) (var8 AddrRange) (var9 AddrRange) (var10 Int) (var11 Int) (var12 Int) (var13 Int) (var14 Heap)) (or (not (and (inv_main36 var14 var13 var12 var11 var10 var9 var8) (and (<= 0 (+ (+ var7 (* (- 1) (+ var6 1))) (- 1))) (and (is-O_Int (read var14 (nthAddrRange var9 var13))) (and (and (and (and (and (and (and (= var5 var14) (= var6 var13)) (= var4 var12)) (= var3 var11)) (= var7 var10)) (= var2 var9)) (= var1 var8)) (= var0 (getInt (read var14 (nthAddrRange var9 var13))))))))) (inv_main25 var5 (+ var6 1) var0 var3 var7 var2 var1))))
(assert (forall ((var0 AddrRange) (var1 AddrRange) (var2 Int) (var3 Int) (var4 Int) (var5 Int) (var6 Heap)) (or (not (and (inv_main27 var6 var5 var4 var3 var2 var1 var0) (and (<= 0 (+ (+ var2 (* (- 1) (+ var5 1))) (- 1))) (and (is-O_Int (read var6 (nthAddrRange var1 var5))) (not (<= 0 (+ (+ var4 (* (- 1) (getInt (read var6 (nthAddrRange var1 var5))))) (- 1)))))))) (inv_main25 var6 (+ var5 1) var4 var3 var2 var1 var0))))
(assert (forall ((var0 Int) (var1 Int) (var2 Int) (var3 Int) (var4 Int) (var5 Heap) (var6 Heap) (var7 Int) (var8 Int) (var9 Int) (var10 Int) (var11 Int) (var12 Int) (var13 Heap) (var14 AddrRange) (var15 AddrRange) (var16 AddrRange) (var17 Int) (var18 Int) (var19 Int) (var20 Int) (var21 Int) (var22 Int) (var23 Int) (var24 Int) (var25 Heap) (var26 Int) (var27 Int) (var28 Heap)) (or (not (and (inv_main3 var28 var27) (and (and (and (and (<= 0 (+ var26 (- 1))) (and (and (and (and (and (and (= var25 (newBatchHeap (batchAlloc emptyHeap (O_Int var24) var23))) (= var22 var21)) (= var20 var19)) (= var18 var17)) (= var26 var23)) (= var16 var15)) (= var14 (newAddrRange (batchAlloc emptyHeap (O_Int var24) var23))))) (and (and (and (and (and (= var13 (newBatchHeap (batchAlloc emptyHeap (O_Int var12) (+ var11 1)))) (= var21 var10)) (= var19 var9)) (= var17 var8)) (= var23 var11)) (= var15 (newAddrRange (batchAlloc emptyHeap (O_Int var12) (+ var11 1)))))) (and (not (= var7 0)) (and (and (and (and (and (= var6 var5) (= var10 var4)) (= var9 var3)) (= var8 0)) (= var11 var2)) (or (and (and (<= 0 (+ (+ 10000 (* (- 1) var2)) (- 1))) (<= 0 (+ (+ var2 10000) (- 1)))) (= var7 1)) (and (not (and (<= 0 (+ (+ 10000 (* (- 1) var2)) (- 1))) (<= 0 (+ (+ var2 10000) (- 1))))) (= var7 0)))))) (and (not (= var1 0)) (and (and (and (= var5 var28) (= var4 var27)) (= var3 var0)) (or (and (and (<= 0 (+ (+ 10000 (* (- 1) var0)) (- 1))) (<= 0 (+ (+ var0 10000) (- 1)))) (= var1 1)) (and (not (and (<= 0 (+ (+ 10000 (* (- 1) var0)) (- 1))) (<= 0 (+ (+ var0 10000) (- 1))))) (= var1 0)))))))) (inv_main25 var25 0 var20 var18 var26 var16 var14))))
(assert (forall ((var0 AddrRange) (var1 AddrRange) (var2 Int) (var3 Int) (var4 Int) (var5 Int) (var6 Heap)) (or (not (and (inv_main25 var6 var5 var4 var3 var2 var1 var0) (is-O_Int (read var6 (nthAddrRange var1 var5))))) (inv_main28 var6 var5 var4 var3 var2 var1 var0 (getInt (read var6 (nthAddrRange var1 var5)))))))
(assert (forall ((var0 AddrRange) (var1 AddrRange) (var2 Int) (var3 Int) (var4 Int) (var5 Int) (var6 Heap)) (or (not (and (inv_main40 var6 var5 var4 var3 var2 var1 var0) (and (not (<= 0 (+ var2 (- 1)))) (not (<= 0 (+ (+ var2 (* (- 1) var5)) (- 1))))))) (inv_main44 var6 0 var4 var3 var2 var1 var0))))
(assert (forall ((var0 Int) (var1 AddrRange) (var2 AddrRange) (var3 Int) (var4 Int) (var5 Heap) (var6 Int) (var7 Int) (var8 AddrRange) (var9 AddrRange) (var10 Int) (var11 Int) (var12 Int) (var13 Int) (var14 Heap)) (or (not (and (inv_main46 var14 var13 var12 var11 var10 var9 var8) (and (not (<= 0 (+ (+ var7 (* (- 1) (+ var6 1))) (- 1)))) (and (is-O_Int (read var14 (nthAddrRange var8 var13))) (and (and (and (and (and (and (and (= var5 var14) (= var6 var13)) (= var4 var12)) (= var3 var11)) (= var7 var10)) (= var2 var9)) (= var1 var8)) (= var0 (+ var11 (getInt (read var14 (nthAddrRange var8 var13)))))))))) (inv_main44 var5 (+ var6 1) var4 (+ var0 var6) var7 var2 var1))))
(assert (forall ((var0 AddrRange) (var1 AddrRange) (var2 Int) (var3 Int) (var4 Int) (var5 Int) (var6 Heap)) (or (not (and (inv_main41 var6 var5 var4 var3 var2 var1 var0) (is-O_Int (read var6 (nthAddrRange var1 var5))))) (inv_main43 var6 var5 var4 var3 var2 var1 var0 (getInt (read var6 (nthAddrRange var1 var5)))))))
(assert (forall ((var0 AddrRange) (var1 AddrRange) (var2 Int) (var3 Int) (var4 Int) (var5 Int) (var6 Heap) (var7 Int) (var8 AddrRange) (var9 AddrRange) (var10 Int) (var11 Int) (var12 Int) (var13 Int) (var14 Heap) (var15 Int) (var16 Int) (var17 AddrRange) (var18 AddrRange) (var19 Int) (var20 Int) (var21 Int) (var22 Int) (var23 Heap)) (or (not (and (inv_main28 var23 var22 var21 var20 var19 var18 var17 var16) (and (and (not (= var15 0)) (and (and (<= 0 (+ (+ 10000 (* (- 1) var16)) (- 1))) (is-O_Int (read var23 (nthAddrRange var18 var22)))) (and (and (and (and (and (and (and (= var14 var23) (= var13 var22)) (= var12 var21)) (= var11 var20)) (= var10 var19)) (= var9 var18)) (= var8 var17)) (= var7 (getInt (read var23 (nthAddrRange var18 var22))))))) (and (and (and (and (and (and (and (= var6 var14) (= var5 var13)) (= var4 var12)) (= var3 var11)) (= var2 var10)) (= var1 var9)) (= var0 var8)) (or (and (<= 0 (+ (+ var7 10000) (- 1))) (= var15 1)) (and (not (<= 0 (+ (+ var7 10000) (- 1)))) (= var15 0))))))) (inv_main27 var6 var5 var4 var3 var2 var1 var0))))
(assert (forall ((var0 AddrRange) (var1 AddrRange) (var2 Int) (var3 Int) (var4 Int) (var5 Int) (var6 Heap)) (or (not (and (inv_main27 var6 var5 var4 var3 var2 var1 var0) (and (is-O_Int (read var6 (nthAddrRange var1 var5))) (<= 0 (+ (+ var4 (* (- 1) (getInt (read var6 (nthAddrRange var1 var5))))) (- 1)))))) (inv_main36 var6 var5 var4 var3 var2 var1 var0))))
(assert (forall ((var0 AddrRange) (var1 AddrRange) (var2 Int) (var3 Int) (var4 Int) (var5 Int) (var6 Heap)) (not (and (inv_main25 var6 var5 var4 var3 var2 var1 var0) (not (is-O_Int (read var6 (nthAddrRange var1 var5))))))))
(assert (forall ((var0 AddrRange) (var1 AddrRange) (var2 Int) (var3 Int) (var4 Int) (var5 Int) (var6 Heap)) (not (and (inv_main25 var6 var5 var4 var3 var2 var1 var0) (and (is-O_Int (read var6 (nthAddrRange var1 var5))) (not (within var1 (nthAddrRange var1 var5))))))))
(assert (forall ((var0 Int) (var1 AddrRange) (var2 AddrRange) (var3 Int) (var4 Int) (var5 Int) (var6 Int) (var7 Heap)) (not (and (inv_main28 var7 var6 var5 var4 var3 var2 var1 var0) (and (<= 0 (+ (+ 10000 (* (- 1) var0)) (- 1))) (not (is-O_Int (read var7 (nthAddrRange var2 var6)))))))))
(assert (forall ((var0 Int) (var1 AddrRange) (var2 AddrRange) (var3 Int) (var4 Int) (var5 Int) (var6 Int) (var7 Heap)) (not (and (inv_main28 var7 var6 var5 var4 var3 var2 var1 var0) (and (and (<= 0 (+ (+ 10000 (* (- 1) var0)) (- 1))) (is-O_Int (read var7 (nthAddrRange var2 var6)))) (not (within var2 (nthAddrRange var2 var6))))))))
(assert (forall ((var0 AddrRange) (var1 AddrRange) (var2 Int) (var3 Int) (var4 Int) (var5 Int) (var6 Heap)) (not (and (inv_main27 var6 var5 var4 var3 var2 var1 var0) (not (is-O_Int (read var6 (nthAddrRange var1 var5))))))))
(assert (forall ((var0 AddrRange) (var1 AddrRange) (var2 Int) (var3 Int) (var4 Int) (var5 Int) (var6 Heap)) (not (and (inv_main27 var6 var5 var4 var3 var2 var1 var0) (and (is-O_Int (read var6 (nthAddrRange var1 var5))) (not (within var1 (nthAddrRange var1 var5))))))))
(assert (forall ((var0 AddrRange) (var1 AddrRange) (var2 Int) (var3 Int) (var4 Int) (var5 Int) (var6 Heap)) (not (and (inv_main36 var6 var5 var4 var3 var2 var1 var0) (not (is-O_Int (read var6 (nthAddrRange var1 var5))))))))
(assert (forall ((var0 AddrRange) (var1 AddrRange) (var2 Int) (var3 Int) (var4 Int) (var5 Int) (var6 Heap)) (not (and (inv_main36 var6 var5 var4 var3 var2 var1 var0) (and (is-O_Int (read var6 (nthAddrRange var1 var5))) (not (within var1 (nthAddrRange var1 var5))))))))
(assert (forall ((var0 AddrRange) (var1 AddrRange) (var2 Int) (var3 Int) (var4 Int) (var5 Int) (var6 Heap)) (not (and (inv_main41 var6 var5 var4 var3 var2 var1 var0) (not (is-O_Int (read var6 (nthAddrRange var1 var5))))))))
(assert (forall ((var0 AddrRange) (var1 AddrRange) (var2 Int) (var3 Int) (var4 Int) (var5 Int) (var6 Heap)) (not (and (inv_main41 var6 var5 var4 var3 var2 var1 var0) (and (is-O_Int (read var6 (nthAddrRange var1 var5))) (not (within var1 (nthAddrRange var1 var5))))))))
(assert (forall ((var0 Int) (var1 AddrRange) (var2 AddrRange) (var3 Int) (var4 Int) (var5 Int) (var6 Int) (var7 Heap)) (not (and (inv_main43 var7 var6 var5 var4 var3 var2 var1 var0) (not (is-O_Int (read var7 (nthAddrRange var1 var6))))))))
(assert (forall ((var0 Int) (var1 AddrRange) (var2 AddrRange) (var3 Int) (var4 Int) (var5 Int) (var6 Int) (var7 Heap)) (not (and (inv_main43 var7 var6 var5 var4 var3 var2 var1 var0) (and (is-O_Int (read var7 (nthAddrRange var1 var6))) (not (within var1 (nthAddrRange var1 var6))))))))
(assert (forall ((var0 Int) (var1 AddrRange) (var2 AddrRange) (var3 Int) (var4 Int) (var5 Int) (var6 Int) (var7 Heap)) (not (and (inv_main43 var7 var6 var5 var4 var3 var2 var1 var0) (and (is-O_Int (read var7 (nthAddrRange var1 var6))) (not (is-O_Int (read var7 (nthAddrRange var1 var6)))))))))
(assert (forall ((var0 AddrRange) (var1 AddrRange) (var2 Int) (var3 Int) (var4 Int) (var5 Int) (var6 Heap)) (not (and (inv_main46 var6 var5 var4 var3 var2 var1 var0) (not (is-O_Int (read var6 (nthAddrRange var0 var5))))))))
(assert (forall ((var0 AddrRange) (var1 AddrRange) (var2 Int) (var3 Int) (var4 Int) (var5 Int) (var6 Heap)) (not (and (inv_main46 var6 var5 var4 var3 var2 var1 var0) (and (is-O_Int (read var6 (nthAddrRange var0 var5))) (not (within var0 (nthAddrRange var0 var5))))))))
(assert (forall ((var0 AddrRange) (var1 AddrRange) (var2 Int) (var3 Int) (var4 Int) (var5 Int) (var6 Heap)) (not (and (inv_main44 var6 var5 var4 var3 var2 var1 var0) (not (<= 0 var3))))))
(check-sat)
